93
Route #1: 1 40 
Route #2: 2 27 
Route #3: 3 23 44 
Route #4: 4 17 30 
Route #5: 5 28 38 48 
Route #6: 6 
Route #7: 7 43 
Route #8: 8 25 56 
Route #9: 9 39 
Route #10: 10 20 
Route #11: 11 49 
Route #12: 12 33 61 
Route #13: 13 53 
Route #14: 14 50 
Route #15: 15 46 58 
Route #16: 16 24 41 
Route #17: 18 36 
Route #18: 19 
Route #19: 21 47 
Route #20: 22 60 
Route #21: 26 52 
Route #22: 29 67 79 
Route #23: 31 69 
Route #24: 32 54 
Route #25: 34 
Route #26: 35 51 73 
Route #27: 37 42 77 
Route #28: 45 64 74 97 
Route #29: 55 
Route #30: 57 82 
Route #31: 59 
Route #32: 62 72 78 
Route #33: 63 89 
Route #34: 65 92 
Route #35: 66 91 
Route #36: 68 111 
Route #37: 70 96 
Route #38: 71 109 
Route #39: 75 115 
Route #40: 76 101 125 
Route #41: 80 104 118 
Route #42: 81 116 
Route #43: 83 100 140 
Route #44: 84 108 128 
Route #45: 85 124 
Route #46: 86 103 
Route #47: 87 126 
Route #48: 88 110 150 
Route #49: 90 117 129 
Route #50: 93 119 
Route #51: 94 130 
Route #52: 95 114 123 157 
Route #53: 98 127 136 
Route #54: 99 144 
Route #55: 102 131 141 
Route #56: 105 143 
Route #57: 106 132 
Route #58: 107 151 
Route #59: 112 152 
Route #60: 113 147 
Route #61: 120 
Route #62: 121 165 
Route #63: 122 160 
Route #64: 133 146 172 180 
Route #65: 134 156 192 
Route #66: 135 159 
Route #67: 137 170 
Route #68: 138 163 
Route #69: 139 148 
Route #70: 142 168 178 196 
Route #71: 145 166 182 
Route #72: 149 179 198 
Route #73: 153 181 
Route #74: 154 173 
Route #75: 155 176 
Route #76: 158 177 
Route #77: 161 175 187 
Route #78: 162 171 
Route #79: 164 195 
Route #80: 167 190 
Route #81: 169 185 
Route #82: 174 
Route #83: 183 
Route #84: 184 
Route #85: 186 
Route #86: 188 
Route #87: 189 
Route #88: 191 
Route #89: 193 
Route #90: 194 
Route #91: 197 
Route #92: 199 
Route #93: 200 
Cost 149576.0
